\ENCODING=ISO-8859-1
\Problem name: ilog.cplex

Minimize
 obj1: - x_0_1 - x_0_2 - x_0_3 - x_0_4 + x_0_5 - x_0_6 - x_0_7 - x_0_8 - x_0_9
       - x_0_10 + x_0_14 - x_16_17 + x_16_18 + x_0_19 - x_16_19 - x_16_20
       + x_16_21 - x_0_23 - x_0_24 - x_0_25 + x_0_26 + x_0_27 + x_16_27
       - x_0_29 + x_16_30 + x_16_31 - x_1_2 - x_1_3 - x_1_4 - x_1_5 - x_1_6
       - x_1_7 - x_1_8 - x_1_9 - x_1_10 + x_1_14 + x_1_16 - x_17_18 - x_17_19
       + x_17_20 - x_17_21 + x_1_22 + x_17_22 + x_17_23 + x_1_25 + x_1_28
       - x_17_29 - x_2_3 - x_2_4 - x_2_5 - x_2_6 - x_2_7 - x_2_8 - x_2_9
       - x_2_10 + x_2_11 - x_2_12 - x_18_19 + x_2_20 - x_18_20 - x_18_21
       + x_2_23 + x_2_25 - x_2_28 - x_18_28 - x_18_30 - x_3_4 - x_3_5 - x_3_6
       - x_3_7 - x_3_8 - x_3_9 - x_3_10 + x_3_13 + x_3_16 + x_3_17 + x_3_18
       - x_19_20 - x_19_21 - x_3_23 - x_3_24 + x_19_24 + x_3_30 - x_4_5 - x_4_6
       - x_4_7 - x_4_8 - x_4_9 - x_4_10 + x_4_11 + x_4_12 + x_4_15 - x_20_21
       - x_4_22 + x_20_27 - x_4_28 + x_20_29 + x_20_30 - x_5_6 - x_5_7 + x_5_8
       - x_5_9 - x_5_10 - x_5_13 + x_5_19 + x_5_23 + x_5_27 + x_5_29 + x_21_29
       + x_21_31 - x_6_7 - x_6_8 - x_6_9 - x_6_10 + x_6_11 + x_6_13 + x_6_14
       + x_6_19 - x_22_23 - x_22_24 - x_22_25 - x_22_26 - x_22_27 - x_22_28
       - x_6_29 - x_22_29 - x_6_30 - x_22_30 + x_6_31 - x_22_31 - x_7_8 - x_7_9
       + x_7_10 + x_7_20 - x_23_24 + x_7_25 - x_23_25 + x_7_26 - x_23_26
       - x_23_27 - x_23_28 + x_7_29 - x_23_29 - x_23_30 - x_23_31 - x_8_9
       - x_8_10 + x_8_13 - x_8_16 + x_8_20 + x_8_22 - x_8_23 - x_8_24 - x_24_25
       - x_24_26 - x_8_27 - x_24_27 - x_8_28 - x_24_28 - x_24_29 - x_24_30
       - x_8_31 - x_24_31 - x_9_10 - x_9_11 + x_9_18 + x_9_19 + x_9_21 + x_9_26
       - x_25_26 - x_25_27 + x_25_28 + x_9_29 - x_25_29 - x_25_30 + x_9_31
       - x_25_31 - x_10_13 - x_10_14 + x_10_17 + x_10_21 + x_10_22 - x_26_27
       + x_10_28 - x_26_28 - x_26_29 - x_26_30 - x_26_31 - x_11_12 - x_11_13
       - x_11_14 - x_11_15 - x_11_16 - x_11_17 - x_11_18 + x_11_19 - x_11_20
       - x_11_21 + x_11_23 + x_11_24 + x_11_27 - x_27_28 + x_11_29 - x_27_29
       - x_27_30 - x_27_31 + x_12_13 - x_12_14 - x_12_15 - x_12_16 - x_12_17
       - x_12_18 - x_12_19 - x_12_20 - x_12_21 + x_12_28 - x_28_29 - x_12_30
       - x_28_30 - x_28_31 - x_13_14 - x_13_15 + x_13_16 - x_13_17 - x_13_18
       - x_13_19 - x_13_21 + x_13_26 - x_13_28 - x_29_30 - x_29_31 - x_14_15
       - x_14_16 - x_14_17 - x_14_18 - x_14_19 - x_14_20 - x_14_21 + x_14_25
       - x_14_26 - x_14_31 + x_30_31 - x_15_16 - x_15_17 - x_15_18 - x_15_19
       - x_15_20 - x_15_21 + x_15_23 + x_15_25 + x_15_28 + x_15_31 + 172
Subject To
 c1:   x_0_1 - x_0_5 + x_1_5 <= 1
 c2:   x_4_9 - x_4_11 + x_9_11 <= 1
 c3:   x_2_4 + x_2_12 - x_4_12 <= 1
 c4:   x_8_10 - x_8_13 + x_10_13 <= 1
 c5:   - x_12_13 + x_12_17 + x_13_17 <= 1
 c6:   x_0_10 - x_0_14 + x_10_14 <= 1
 c7:   x_2_4 + x_2_12 - x_4_15 + x_12_15 <= 2
 c8:   - x_16_18 + x_11_16 + x_11_18 <= 1
 c9:   x_0_2 - x_0_19 + x_2_12 + x_12_19 <= 2
 c10:  x_16_20 + x_8_16 - x_8_20 <= 1
 c11:  - x_16_21 + x_11_16 + x_11_21 <= 1
 c12:  x_4_8 + x_4_22 - x_8_22 <= 1
 c13:  x_0_23 - x_0_26 + x_23_26 <= 1
 c14:  x_0_8 - x_0_27 + x_8_27 <= 1
 c15:  x_18_28 + x_12_18 - x_12_28 <= 1
 c16:  x_16_17 + x_16_20 + x_17_29 - x_20_29 <= 2
 c17:  - x_16_30 + x_12_16 + x_12_30 <= 1
 c18:  x_18_20 + x_18_30 - x_20_30 <= 1
 c19:  x_1_5 + x_1_8 - x_5_8 <= 1
 c20:  x_1_10 - x_1_14 + x_10_14 <= 1
 c21:  x_1_8 - x_1_16 + x_8_16 <= 1
 c22:  x_16_17 - x_13_16 + x_13_17 <= 1
 c23:  x_9_11 - x_9_18 + x_11_18 <= 1
 c24:  x_5_13 - x_5_19 + x_13_19 <= 1
 c25:  x_16_19 + x_8_9 + x_8_16 - x_9_19 <= 2
 c26:  x_16_17 + x_16_20 - x_17_20 <= 1
 c27:  x_9_11 - x_9_21 + x_11_21 <= 1
 c28:  x_1_4 - x_1_22 + x_4_22 <= 1
 c29:  - x_17_22 + x_17_29 + x_22_29 <= 1
 c30:  - x_17_23 + x_17_29 + x_23_29 <= 1
 c31:  x_3_5 + x_3_23 - x_5_23 <= 1
 c32:  x_0_1 + x_0_25 - x_1_25 <= 1
 c33:  x_0_9 + x_0_23 + x_23_26 - x_9_26 <= 2
 c34:  x_26_28 - x_13_26 + x_13_28 <= 1
 c35:  x_1_5 + x_1_8 - x_5_27 + x_8_27 <= 2
 c36:  x_1_2 - x_1_28 + x_2_28 <= 1
 c37:  x_24_25 + x_24_28 - x_25_28 <= 1
 c38:  x_5_6 - x_5_29 + x_6_29 <= 1
 c39:  x_17_21 + x_17_29 - x_21_29 <= 1
 c40:  x_0_9 + x_0_29 - x_9_29 <= 1
 c41:  - x_21_31 + x_14_21 + x_14_31 <= 1
 c42:  x_8_9 + x_8_31 - x_9_31 <= 1
 c43:  x_2_9 - x_2_11 + x_9_11 <= 1
 c44:  x_6_9 - x_6_11 + x_9_11 <= 1
 c45:  x_5_6 + x_5_13 - x_6_13 <= 1
 c46:  x_6_10 - x_6_14 + x_10_14 <= 1
 c47:  x_10_13 - x_10_17 + x_13_17 <= 1
 c48:  x_2_6 + x_2_12 - x_6_19 + x_12_19 <= 2
 c49:  x_2_12 - x_2_20 + x_12_20 <= 1
 c50:  x_10_13 - x_10_21 + x_13_21 <= 1
 c51:  x_4_10 + x_4_22 - x_10_22 <= 1
 c52:  x_0_2 + x_0_23 - x_2_23 <= 1
 c53:  x_0_2 + x_0_25 - x_2_25 <= 1
 c54:  x_25_26 - x_14_25 + x_14_26 <= 1
 c55:  x_8_10 + x_8_28 - x_10_28 <= 1
 c56:  x_6_8 - x_6_31 + x_8_31 <= 1
 c57:  x_24_30 + x_24_31 - x_30_31 <= 1
 c58:  x_0_7 + x_0_10 - x_7_10 <= 1
 c59:  x_3_5 - x_3_13 + x_5_13 <= 1
 c60:  x_3_8 - x_3_16 + x_8_16 <= 1
 c61:  x_2_3 + x_2_12 - x_3_18 + x_12_18 <= 2
 c62:  x_16_19 + x_11_16 - x_11_19 <= 1
 c63:  x_2_7 + x_2_12 - x_7_20 + x_12_20 <= 2
 c64:  x_0_7 + x_0_25 - x_7_25 <= 1
 c65:  x_17_29 + x_25_29 + x_15_17 - x_15_25 <= 2
 c66:  x_0_7 + x_0_23 - x_7_26 + x_23_26 <= 2
 c67:  x_18_28 + x_15_18 - x_15_28 <= 1
 c68:  x_0_7 + x_0_29 - x_7_29 <= 1
 c69:  x_17_29 + x_11_17 - x_11_29 <= 1
 c70:  x_3_6 - x_3_30 + x_6_30 <= 1
 c71:  x_14_15 + x_14_31 - x_15_31 <= 1
 c72:  x_0_2 - x_0_5 + x_2_5 <= 1
 c73:  x_0_1 - x_0_8 + x_1_8 <= 1
 c74:  x_0_1 - x_0_10 + x_1_10 <= 1
 c75:  x_1_8 + x_1_10 - x_8_10 <= 1
 c76:  - x_16_18 + x_12_16 + x_12_18 <= 1
 c77:  x_0_2 - x_0_19 + x_2_5 + x_5_19 <= 2
 c78:  - x_16_20 + x_12_16 + x_12_20 <= 1
 c79:  - x_16_21 + x_12_16 + x_12_21 <= 1
 c80:  x_22_23 - x_8_22 + x_8_23 <= 1
 c81:  x_0_3 - x_0_23 + x_3_23 <= 1
 c82:  x_0_3 - x_0_25 + x_3_23 + x_23_25 <= 2
 c83:  x_22_24 + x_22_25 - x_24_25 <= 1
 c84:  x_0_24 - x_0_26 + x_24_26 <= 1
 c85:  x_0_24 - x_0_27 + x_24_27 <= 1
 c86:  - x_16_27 + x_16_30 + x_27_30 <= 1
 c87:  x_0_6 - x_0_29 + x_6_29 <= 1
 c88:  x_22_24 + x_22_30 - x_24_30 <= 1
 c89:  - x_16_31 + x_26_31 + x_14_16 + x_14_26 <= 2
 c90:  x_23_31 + x_8_23 - x_8_31 <= 1
 c91:  x_0_1 + x_0_2 - x_1_2 <= 1
 c92:  x_1_4 - x_1_5 + x_4_5 <= 1
 c93:  x_5_9 + x_5_13 - x_9_11 + x_11_13 <= 2
 c94:  x_18_19 + x_5_9 + x_5_19 - x_9_18 <= 2
 c95:  x_5_9 + x_5_19 - x_9_19 <= 1
 c96:  - x_17_20 + x_11_17 + x_11_20 <= 1
 c97:  x_19_21 + x_5_9 + x_5_19 - x_9_21 <= 2
 c98:  x_0_1 + x_0_24 - x_1_22 + x_22_24 <= 2
 c99:  x_16_17 + x_16_30 - x_17_22 + x_22_30 <= 2
 c100: x_16_17 + x_16_30 - x_17_23 + x_23_30 <= 2
 c101: x_1_3 - x_1_25 + x_3_23 + x_23_25 <= 2
 c102: x_0_9 + x_0_24 + x_24_26 - x_9_26 <= 2
 c103: x_22_25 + x_22_26 - x_25_26 <= 1
 c104: x_1_4 - x_1_28 + x_4_28 <= 1
 c105: x_22_25 + x_22_28 - x_25_28 <= 1
 c106: x_16_17 + x_16_30 - x_17_29 + x_29_30 <= 2
 c107: x_6_9 + x_6_29 - x_9_29 <= 1
 c108: x_0_9 + x_0_24 + x_24_31 - x_9_31 <= 2
 c109: x_2_5 - x_2_11 + x_5_13 + x_11_13 <= 2
 c110: x_2_5 - x_2_12 + x_5_19 + x_12_19 <= 2
 c111: x_5_10 + x_5_13 - x_10_13 <= 1
 c112: x_5_10 + x_5_19 - x_10_14 + x_14_19 <= 2
 c113: x_17_19 + x_5_10 + x_5_19 - x_10_17 <= 2
 c114: x_2_5 - x_2_20 + x_19_20 + x_5_19 <= 2
 c115: - x_18_20 + x_11_18 + x_11_20 <= 1
 c116: x_19_21 + x_5_10 + x_5_19 - x_10_21 <= 2
 c117: x_2_10 + x_2_28 + x_22_28 - x_10_22 <= 2
 c118: x_2_3 - x_2_23 + x_3_23 <= 1
 c119: x_2_3 - x_2_25 + x_3_23 + x_23_25 <= 2
 c120: - x_18_28 + x_13_18 + x_13_28 <= 1
 c121: x_2_10 + x_2_28 - x_10_28 <= 1
 c122: x_24_26 + x_24_28 - x_26_28 <= 1
 c123: x_2_3 + x_2_5 - x_3_5 <= 1
 c124: x_0_3 + x_0_6 - x_3_6 <= 1
 c125: x_2_3 + x_2_5 - x_3_13 + x_5_13 <= 2
 c126: x_16_17 - x_11_16 + x_11_17 <= 1
 c127: x_17_19 + x_2_3 + x_2_5 - x_3_17 + x_5_19 <= 3
 c128: x_17_19 + x_11_17 - x_11_19 <= 1
 c129: x_18_30 + x_23_30 + x_11_18 - x_11_23 <= 2
 c130: - x_19_24 + x_24_28 + x_13_19 + x_13_28 <= 2
 c131: x_24_28 + x_11_13 - x_11_24 + x_13_28 <= 2
 c132: x_18_30 + x_11_18 - x_11_27 + x_27_30 <= 2
 c133: x_18_30 + x_11_18 - x_11_29 + x_29_30 <= 2
 c134: x_3_23 - x_3_30 + x_23_30 <= 1
 c135: x_4_5 - x_4_11 + x_5_13 + x_11_13 <= 2
 c136: x_4_5 - x_4_12 + x_5_19 + x_12_19 <= 2
 c137: - x_12_13 + x_12_18 + x_13_18 <= 1
 c138: x_4_5 - x_4_15 + x_5_19 + x_15_19 <= 2
 c139: - x_4_22 + x_4_28 + x_22_28 <= 1
 c140: - x_20_27 + x_27_30 + x_12_20 + x_12_30 <= 2
 c141: - x_12_28 + x_12_30 + x_28_30 <= 1
 c142: - x_20_29 + x_12_20 + x_12_30 + x_29_30 <= 2
 c143: - x_20_30 + x_12_20 + x_12_30 <= 1
 c144: x_2_5 + x_2_6 - x_5_6 <= 1
 c145: x_2_5 + x_2_8 - x_5_8 <= 1
 c146: x_16_19 - x_13_16 + x_13_19 <= 1
 c147: x_17_18 - x_13_17 + x_13_18 <= 1
 c148: x_2_3 + x_2_5 + x_3_23 - x_5_23 <= 2
 c149: x_13_14 - x_13_26 + x_14_26 <= 1
 c150: x_2_5 + x_2_8 - x_5_27 + x_8_27 <= 2
 c151: x_2_5 + x_2_6 - x_5_29 + x_6_29 <= 2
 c152: x_18_21 + x_18_30 - x_21_29 + x_29_30 <= 2
 c153: - x_21_31 + x_28_31 + x_13_21 + x_13_28 <= 2
 c154: x_2_5 + x_2_6 + x_5_13 - x_6_13 <= 2
 c155: x_2_5 + x_2_6 + x_5_19 - x_6_19 <= 2
 c156: x_16_30 + x_25_30 + x_14_16 - x_14_25 <= 2
 c157: x_6_29 - x_6_31 + x_29_31 <= 1
 c158: x_26_31 + x_14_26 - x_14_31 <= 1
 c159: x_26_30 + x_26_31 - x_30_31 <= 1
 c160: x_1_7 + x_1_10 - x_7_10 <= 1
 c161: x_19_20 + x_5_7 + x_5_19 - x_7_20 <= 2
 c162: x_16_30 + x_23_30 + x_15_16 - x_15_23 <= 2
 c163: x_3_7 + x_3_23 - x_7_25 + x_23_25 <= 2
 c164: x_16_30 + x_25_30 + x_15_16 - x_15_25 <= 2
 c165: x_0_7 + x_0_24 - x_7_26 + x_24_26 <= 2
 c166: x_13_15 + x_13_28 - x_15_28 <= 1
 c167: x_6_7 + x_6_29 - x_7_29 <= 1
 c168: x_28_31 + x_13_15 + x_13_28 - x_15_31 <= 2
 c169: - x_16_17 + x_14_16 + x_14_17 <= 1
 c170: - x_16_18 + x_14_16 + x_14_18 <= 1
 c171: - x_16_21 + x_14_16 + x_14_21 <= 1
 c172: x_22_24 - x_8_22 + x_8_24 <= 1
 c173: x_0_3 - x_0_23 + x_3_24 + x_23_24 <= 2
 c174: x_23_24 - x_8_23 + x_8_24 <= 1
 c175: x_0_3 - x_0_24 + x_3_24 <= 1
 c176: x_0_3 - x_0_25 + x_3_24 + x_24_25 <= 2
 c177: x_0_3 - x_0_26 + x_3_24 + x_24_26 <= 2
 c178: x_0_3 - x_0_27 + x_3_24 + x_24_27 <= 2
 c179: x_8_24 - x_8_27 + x_24_27 <= 1
 c180: x_8_24 - x_8_28 + x_24_28 <= 1
 c181: x_0_3 - x_0_29 + x_3_24 + x_24_29 <= 2
 c182: x_8_24 - x_8_31 + x_24_31 <= 1
 c183: - x_17_20 + x_12_17 + x_12_20 <= 1
 c184: x_1_3 - x_1_22 + x_3_24 + x_22_24 <= 2
 c185: x_1_3 - x_1_25 + x_3_24 + x_24_25 <= 2
 c186: x_8_9 + x_8_24 + x_24_26 - x_9_26 <= 2
 c187: x_1_3 - x_1_28 + x_3_24 + x_24_28 <= 2
 c188: x_8_9 + x_8_24 + x_24_29 - x_9_29 <= 2
 c189: x_8_9 + x_8_24 + x_24_31 - x_9_31 <= 2
 c190: x_22_24 + x_8_10 + x_8_24 - x_10_22 <= 2
 c191: x_2_3 - x_2_23 + x_3_24 + x_23_24 <= 2
 c192: x_2_3 - x_2_25 + x_3_24 + x_24_25 <= 2
 c193: x_2_3 - x_2_28 + x_3_24 + x_24_28 <= 2
 c194: x_8_10 + x_8_24 + x_24_28 - x_10_28 <= 2
 c195: x_16_20 - x_11_16 + x_11_20 <= 1
 c196: x_17_18 - x_11_17 + x_11_18 <= 1
 c197: x_18_19 + x_11_18 - x_11_19 <= 1
 c198: - x_3_23 + x_3_24 + x_23_24 <= 1
 c199: x_16_19 - x_12_16 + x_12_19 <= 1
 c200: x_3_4 + x_3_24 - x_4_22 + x_22_24 <= 2
 c201: x_3_4 + x_3_24 - x_4_28 + x_24_28 <= 2
 c202: x_13_14 - x_13_16 + x_14_16 <= 1
 c203: x_17_19 + x_13_17 - x_13_19 <= 1
 c204: x_3_5 + x_3_24 - x_5_23 + x_23_24 <= 2
 c205: x_3_5 + x_3_24 - x_5_27 + x_24_27 <= 2
 c206: x_3_5 + x_3_24 - x_5_29 + x_24_29 <= 2
 c207: - x_6_29 + x_6_30 + x_29_30 <= 1
 c208: x_6_30 - x_6_31 + x_30_31 <= 1
 c209: x_3_7 + x_3_24 - x_7_25 + x_24_25 <= 2
 c210: x_3_7 + x_3_24 - x_7_26 + x_24_26 <= 2
 c211: x_3_7 + x_3_24 - x_7_29 + x_24_29 <= 2
Bounds
 0 <= x_0_1 <= 1
 0 <= x_0_2 <= 1
 0 <= x_0_3 <= 1
 0 <= x_0_4 <= 1
 0 <= x_0_5 <= 1
 0 <= x_0_6 <= 1
 0 <= x_0_7 <= 1
 0 <= x_0_8 <= 1
 0 <= x_0_9 <= 1
 0 <= x_0_10 <= 1
 0 <= x_0_14 <= 1
 0 <= x_16_17 <= 1
 0 <= x_16_18 <= 1
 0 <= x_0_19 <= 1
 0 <= x_16_19 <= 1
 0 <= x_16_20 <= 1
 0 <= x_16_21 <= 1
 0 <= x_0_23 <= 1
 0 <= x_0_24 <= 1
 0 <= x_0_25 <= 1
 0 <= x_0_26 <= 1
 0 <= x_0_27 <= 1
 0 <= x_16_27 <= 1
 0 <= x_0_29 <= 1
 0 <= x_16_30 <= 1
 0 <= x_16_31 <= 1
 0 <= x_1_2 <= 1
 0 <= x_1_3 <= 1
 0 <= x_1_4 <= 1
 0 <= x_1_5 <= 1
 0 <= x_1_6 <= 1
 0 <= x_1_7 <= 1
 0 <= x_1_8 <= 1
 0 <= x_1_9 <= 1
 0 <= x_1_10 <= 1
 0 <= x_1_14 <= 1
 0 <= x_1_16 <= 1
 0 <= x_17_18 <= 1
 0 <= x_17_19 <= 1
 0 <= x_17_20 <= 1
 0 <= x_17_21 <= 1
 0 <= x_1_22 <= 1
 0 <= x_17_22 <= 1
 0 <= x_17_23 <= 1
 0 <= x_1_25 <= 1
 0 <= x_1_28 <= 1
 0 <= x_17_29 <= 1
 0 <= x_2_3 <= 1
 0 <= x_2_4 <= 1
 0 <= x_2_5 <= 1
 0 <= x_2_6 <= 1
 0 <= x_2_7 <= 1
 0 <= x_2_8 <= 1
 0 <= x_2_9 <= 1
 0 <= x_2_10 <= 1
 0 <= x_2_11 <= 1
 0 <= x_2_12 <= 1
 0 <= x_18_19 <= 1
 0 <= x_2_20 <= 1
 0 <= x_18_20 <= 1
 0 <= x_18_21 <= 1
 0 <= x_2_23 <= 1
 0 <= x_2_25 <= 1
 0 <= x_2_28 <= 1
 0 <= x_18_28 <= 1
 0 <= x_18_30 <= 1
 0 <= x_3_4 <= 1
 0 <= x_3_5 <= 1
 0 <= x_3_6 <= 1
 0 <= x_3_7 <= 1
 0 <= x_3_8 <= 1
 0 <= x_3_9 <= 1
 0 <= x_3_10 <= 1
 0 <= x_3_13 <= 1
 0 <= x_3_16 <= 1
 0 <= x_3_17 <= 1
 0 <= x_3_18 <= 1
 0 <= x_19_20 <= 1
 0 <= x_19_21 <= 1
 0 <= x_3_23 <= 1
 0 <= x_3_24 <= 1
 0 <= x_19_24 <= 1
 0 <= x_3_30 <= 1
 0 <= x_4_5 <= 1
 0 <= x_4_6 <= 1
 0 <= x_4_7 <= 1
 0 <= x_4_8 <= 1
 0 <= x_4_9 <= 1
 0 <= x_4_10 <= 1
 0 <= x_4_11 <= 1
 0 <= x_4_12 <= 1
 0 <= x_4_15 <= 1
 0 <= x_20_21 <= 1
 0 <= x_4_22 <= 1
 0 <= x_20_27 <= 1
 0 <= x_4_28 <= 1
 0 <= x_20_29 <= 1
 0 <= x_20_30 <= 1
 0 <= x_5_6 <= 1
 0 <= x_5_7 <= 1
 0 <= x_5_8 <= 1
 0 <= x_5_9 <= 1
 0 <= x_5_10 <= 1
 0 <= x_5_13 <= 1
 0 <= x_5_19 <= 1
 0 <= x_5_23 <= 1
 0 <= x_5_27 <= 1
 0 <= x_5_29 <= 1
 0 <= x_21_29 <= 1
 0 <= x_21_31 <= 1
 0 <= x_6_7 <= 1
 0 <= x_6_8 <= 1
 0 <= x_6_9 <= 1
 0 <= x_6_10 <= 1
 0 <= x_6_11 <= 1
 0 <= x_6_13 <= 1
 0 <= x_6_14 <= 1
 0 <= x_6_19 <= 1
 0 <= x_22_23 <= 1
 0 <= x_22_24 <= 1
 0 <= x_22_25 <= 1
 0 <= x_22_26 <= 1
 0 <= x_22_27 <= 1
 0 <= x_22_28 <= 1
 0 <= x_6_29 <= 1
 0 <= x_22_29 <= 1
 0 <= x_6_30 <= 1
 0 <= x_22_30 <= 1
 0 <= x_6_31 <= 1
 0 <= x_22_31 <= 1
 0 <= x_7_8 <= 1
 0 <= x_7_9 <= 1
 0 <= x_7_10 <= 1
 0 <= x_7_20 <= 1
 0 <= x_23_24 <= 1
 0 <= x_7_25 <= 1
 0 <= x_23_25 <= 1
 0 <= x_7_26 <= 1
 0 <= x_23_26 <= 1
 0 <= x_23_27 <= 1
 0 <= x_23_28 <= 1
 0 <= x_7_29 <= 1
 0 <= x_23_29 <= 1
 0 <= x_23_30 <= 1
 0 <= x_23_31 <= 1
 0 <= x_8_9 <= 1
 0 <= x_8_10 <= 1
 0 <= x_8_13 <= 1
 0 <= x_8_16 <= 1
 0 <= x_8_20 <= 1
 0 <= x_8_22 <= 1
 0 <= x_8_23 <= 1
 0 <= x_8_24 <= 1
 0 <= x_24_25 <= 1
 0 <= x_24_26 <= 1
 0 <= x_8_27 <= 1
 0 <= x_24_27 <= 1
 0 <= x_8_28 <= 1
 0 <= x_24_28 <= 1
 0 <= x_24_29 <= 1
 0 <= x_24_30 <= 1
 0 <= x_8_31 <= 1
 0 <= x_24_31 <= 1
 0 <= x_9_10 <= 1
 0 <= x_9_11 <= 1
 0 <= x_9_18 <= 1
 0 <= x_9_19 <= 1
 0 <= x_9_21 <= 1
 0 <= x_9_26 <= 1
 0 <= x_25_26 <= 1
 0 <= x_25_27 <= 1
 0 <= x_25_28 <= 1
 0 <= x_9_29 <= 1
 0 <= x_25_29 <= 1
 0 <= x_25_30 <= 1
 0 <= x_9_31 <= 1
 0 <= x_25_31 <= 1
 0 <= x_10_13 <= 1
 0 <= x_10_14 <= 1
 0 <= x_10_17 <= 1
 0 <= x_10_21 <= 1
 0 <= x_10_22 <= 1
 0 <= x_26_27 <= 1
 0 <= x_10_28 <= 1
 0 <= x_26_28 <= 1
 0 <= x_26_29 <= 1
 0 <= x_26_30 <= 1
 0 <= x_26_31 <= 1
 0 <= x_11_12 <= 1
 0 <= x_11_13 <= 1
 0 <= x_11_14 <= 1
 0 <= x_11_15 <= 1
 0 <= x_11_16 <= 1
 0 <= x_11_17 <= 1
 0 <= x_11_18 <= 1
 0 <= x_11_19 <= 1
 0 <= x_11_20 <= 1
 0 <= x_11_21 <= 1
 0 <= x_11_23 <= 1
 0 <= x_11_24 <= 1
 0 <= x_11_27 <= 1
 0 <= x_27_28 <= 1
 0 <= x_11_29 <= 1
 0 <= x_27_29 <= 1
 0 <= x_27_30 <= 1
 0 <= x_27_31 <= 1
 0 <= x_12_13 <= 1
 0 <= x_12_14 <= 1
 0 <= x_12_15 <= 1
 0 <= x_12_16 <= 1
 0 <= x_12_17 <= 1
 0 <= x_12_18 <= 1
 0 <= x_12_19 <= 1
 0 <= x_12_20 <= 1
 0 <= x_12_21 <= 1
 0 <= x_12_28 <= 1
 0 <= x_28_29 <= 1
 0 <= x_12_30 <= 1
 0 <= x_28_30 <= 1
 0 <= x_28_31 <= 1
 0 <= x_13_14 <= 1
 0 <= x_13_15 <= 1
 0 <= x_13_16 <= 1
 0 <= x_13_17 <= 1
 0 <= x_13_18 <= 1
 0 <= x_13_19 <= 1
 0 <= x_13_21 <= 1
 0 <= x_13_26 <= 1
 0 <= x_13_28 <= 1
 0 <= x_29_30 <= 1
 0 <= x_29_31 <= 1
 0 <= x_14_15 <= 1
 0 <= x_14_16 <= 1
 0 <= x_14_17 <= 1
 0 <= x_14_18 <= 1
 0 <= x_14_19 <= 1
 0 <= x_14_20 <= 1
 0 <= x_14_21 <= 1
 0 <= x_14_25 <= 1
 0 <= x_14_26 <= 1
 0 <= x_14_31 <= 1
 0 <= x_30_31 <= 1
 0 <= x_15_16 <= 1
 0 <= x_15_17 <= 1
 0 <= x_15_18 <= 1
 0 <= x_15_19 <= 1
 0 <= x_15_20 <= 1
 0 <= x_15_21 <= 1
 0 <= x_15_23 <= 1
 0 <= x_15_25 <= 1
 0 <= x_15_28 <= 1
 0 <= x_15_31 <= 1
End
